c User generated cnf file
p cnf 13 54
13 -10 4 0 
2 -5 6 0 
6 -3 10 0 
1 7 -6 0 
5 -2 1 0 
5 -8 7 0 
8 6 -2 0 
8 -13 4 0 
12 4 -3 0 
6 13 -12 0 
2 11 -4 0 
5 -9 9 0 
7 5 -6 0 
4 -10 11 0 
8 13 -7 0 
6 -7 6 0 
13 -6 10 0 
2 -6 6 0 
9 3 -7 0 
1 -6 4 0 
11 -5 1 0 
3 13 -8 0 
6 2 -3 0 
6 6 -5 0 
3 -10 9 0 
9 10 -8 0 
2 1 -8 0 
6 -7 4 0 
9 5 -8 0 
9 -12 11 0 
7 -12 1 0 
4 -9 12 0 
10 6 -13 0 
3 -10 12 0 
11 9 -3 0 
7 5 -1 0 
6 -12 11 0 
4 -5 11 0 
4 -13 1 0 
11 13 -6 0 
6 11 -8 0 
4 6 -8 0 
1 -10 11 0 
10 -11 4 0 
4 -1 2 0 
6 -12 13 0 
3 11 -3 0 
2 4 -12 0 
13 -9 7 0 
2 -8 5 0 
3 -8 13 0 
8 -3 8 0 
3 3 -9 0 
13 2 -5 0 
